Traveling Salesman Problem/TSP_generados/Aleatorio1621103992_18.tsp
NAME: Aleatorio1621103992_18.tsp
COMMENT: Randomly generated scenario
TYPE: TSP
DIMENSION: 18
EDGE_WEIGHT_TYPE: ATT
NODE_COORD_SECTION
1 4.55 46.8
2 4.58 42.06
3 30.96 37.65
4 17.47 20.86
5 26.79 39.25
6 6.91 48.14
7 46.44 27.81
8 21.97 5.75
9 30.54 20.51
10 25.86 43.43
11 44.51 32.6
12 25.77 8.35
13 0.34 8.0
14 10.46 43.66
15 39.87 42.62
16 49.71 21.44
17 9.38 44.92
18 21.48 17.63
