Traveling Salesman Problem/TSP_generados/Aleatorio1621103992_18.opt.tour
NAME: Aleatorio1621103992_18.opt.tour
COMMENT: Optimal solution for Aleatorio1621103992_18 (179.20506122048383)
TYPE: TOUR
DIMENSION: 18
TOUR_SECTION
1 2 13 8 12 18 4 9 16 7 11 15 3 5 10 14 17 6
-1
EOF
